<?xml version = "1.0" standalone="yes"?>
<!-- This file has been generated by DOcplex version 2.23.222  -->
<CPLEXSolution version="1.0">
 <header
   problemName="CVRP"
   objectiveValue="21897.1"
  />
 <variables>
  <variable name="x_0_1" index="0" value="1.00000"/>
  <variable name="x_0_2" index="1" value="1.00000"/>
  <variable name="x_0_4" index="3" value="1.00000"/>
  <variable name="x_0_6" index="5" value="1.00000"/>
  <variable name="x_0_7" index="6" value="1.00000"/>
  <variable name="x_0_8" index="7" value="1.00000"/>
  <variable name="x_0_9" index="8" value="1.00000"/>
  <variable name="x_0_12" index="11" value="1.00000"/>
  <variable name="x_0_14" index="13" value="1.00000"/>
  <variable name="x_0_16" index="15" value="1.00000"/>
  <variable name="x_0_18" index="17" value="1.00000"/>
  <variable name="x_0_19" index="18" value="1.00000"/>
  <variable name="x_0_21" index="20" value="1.00000"/>
  <variable name="x_0_22" index="21" value="1.00000"/>
  <variable name="x_0_23" index="22" value="1.00000"/>
  <variable name="x_0_27" index="26" value="1.00000"/>
  <variable name="x_0_29" index="28" value="1.00000"/>
  <variable name="x_1_20" index="49" value="1.00000"/>
  <variable name="x_2_11" index="70" value="1.00000"/>
  <variable name="x_3_0" index="90" value="1.00000"/>
  <variable name="x_4_0" index="120" value="1.00000"/>
  <variable name="x_5_30" index="179" value="1.00000"/>
  <variable name="x_6_0" index="180" value="1.00000"/>
  <variable name="x_7_0" index="210" value="1.00000"/>
  <variable name="x_8_17" index="256" value="1.00000"/>
  <variable name="x_9_13" index="282" value="1.00000"/>
  <variable name="x_10_0" index="300" value="1.00000"/>
  <variable name="x_11_0" index="330" value="1.00000"/>
  <variable name="x_12_5" index="365" value="1.00000"/>
  <variable name="x_13_3" index="393" value="1.00000"/>
  <variable name="x_14_0" index="420" value="1.00000"/>
  <variable name="x_15_0" index="450" value="1.00000"/>
  <variable name="x_16_25" index="504" value="1.00000"/>
  <variable name="x_17_0" index="510" value="1.00000"/>
  <variable name="x_18_0" index="540" value="1.00000"/>
  <variable name="x_19_24" index="593" value="1.00000"/>
  <variable name="x_20_15" index="615" value="1.00000"/>
  <variable name="x_21_0" index="630" value="1.00000"/>
  <variable name="x_22_0" index="660" value="1.00000"/>
  <variable name="x_23_0" index="690" value="1.00000"/>
  <variable name="x_24_0" index="720" value="1.00000"/>
  <variable name="x_25_10" index="760" value="1.00000"/>
  <variable name="x_26_0" index="780" value="1.00000"/>
  <variable name="x_27_28" index="837" value="1.00000"/>
  <variable name="x_28_0" index="840" value="1.00000"/>
  <variable name="x_29_26" index="896" value="1.00000"/>
  <variable name="x_30_0" index="900" value="1.00000"/>
  <variable name="u_1" index="930" value="27.00000"/>
  <variable name="u_2" index="931" value="67.00000"/>
  <variable name="u_3" index="932" value="70.00000"/>
  <variable name="u_4" index="933" value="68.00000"/>
  <variable name="u_5" index="934" value="68.00000"/>
  <variable name="u_6" index="935" value="69.00000"/>
  <variable name="u_7" index="936" value="63.00000"/>
  <variable name="u_8" index="937" value="38.00000"/>
  <variable name="u_9" index="938" value="18.00000"/>
  <variable name="u_10" index="939" value="64.00000"/>
  <variable name="u_11" index="940" value="70.00000"/>
  <variable name="u_12" index="941" value="31.00000"/>
  <variable name="u_13" index="942" value="40.00000"/>
  <variable name="u_14" index="943" value="70.00000"/>
  <variable name="u_15" index="944" value="70.00000"/>
  <variable name="u_16" index="945" value="12.00000"/>
  <variable name="u_17" index="946" value="70.00000"/>
  <variable name="u_18" index="947" value="59.00000"/>
  <variable name="u_19" index="948" value="3.00000"/>
  <variable name="u_20" index="949" value="57.00000"/>
  <variable name="u_21" index="950" value="59.00000"/>
  <variable name="u_22" index="951" value="70.00000"/>
  <variable name="u_23" index="952" value="63.00000"/>
  <variable name="u_24" index="953" value="67.00000"/>
  <variable name="u_25" index="954" value="51.00000"/>
  <variable name="u_26" index="955" value="70.00000"/>
  <variable name="u_27" index="956" value="58.00000"/>
  <variable name="u_28" index="957" value="70.00000"/>
  <variable name="u_29" index="958" value="59.00000"/>
  <variable name="u_30" index="959" value="70.00000"/>
 </variables>
</CPLEXSolution>
